300
500
350
350
348
348
346
346
346
346
346
346
344
343
340
340
339
339
339
338
338
337
337
336
331
331
329
329
329
328
324
324
322
320
320
320
319
319
317
317
316
316
315
315
314
314
313
312
310
310
307
306
305
305
305
304
304
304
304
304
302
301
301
300
300
300
299
299
299
298
298
295
291
290
290
290
290
288
288
288
287
287
287
286
284
282
282
280
280
270
270
268
267
265
265
264
261
260
260
259
259
258
258
257
256
256
255
254
254
252
252
252
250
250
247
247
247
247
246
246
244
242
242
241
240
240
239
238
237
237
235
233
233
231
229
229
228
228
228
227
226
226
225
223
223
219
219
217
217
216
215
215
214
214
212
212
208
205
204
204
203
201
201
197
197
194
190
189
188
188
185
185
181
179
178
178
177
176
173
173
172
172
171
170
169
169
167
167
167
167
167
166
166
166
161
161
161
161
159
158
157
157
156
155
155
154
154
154
152
151
151
150
149
148
148
148
146
146
145
144
137
135
135
134
133
132
132
132
131
131
129
128
127
127
125
125
124
122
121
121
121
120
119
119
118
117
114
113
112
112
111
109
109
107
107
105
102
100
99
98
96
94
92
89
88
88
88
86
86
83
82
80
79
78
78
78
77
77
77
75
74
74
74
74
74
73
73
67
66
65
65
63
63
62
62
58
57
56
53
52
51
51
